************************************************************************
file with basedata            : n/a
initial value random generator: n/a
************************************************************************
projects                      :  1
jobs (incl. supersource/sink ):  122
horizon                       :  657
RESOURCES
  - renewable                 :  4   R
  - nonrenewable              :  0   N
  - doubly constrained        :  0   D
************************************************************************
PROJECT INFORMATION:
pronr.  #jobs rel.date duedate tardcost  MPM-Time
    1    120      0      101        2      101
************************************************************************
PRECEDENCE RELATIONS:
jobnr.    #modes  #successors   successors
   1        1          3           2   3   4
   2        1          3           7   8  18
   3        1          3           5   6  12
   4        1          3          10  19  71
   5        1          3           9  11  13
   6        1          3          22  34  85
   7        1          3          24  44  52
   8        1          2          17  61
   9        1          3          14  20  29
  10        1          3          15  59 111
  11        1          2          33  54
  12        1          1          58
  13        1          3          21  46  48
  14        1          3          16  39  55
  15        1          3          51  79  82
  16        1          3          28  35  74
  17        1          3          33  42  74
  18        1          3          31  36  43
  19        1          3          23  54  75
  20        1          3          28  50  60
  21        1          3          25  27  85
  22        1          3          30  32  38
  23        1          3          57  69 117
  24        1          3          41  57 106
  25        1          3          26  37  53
  26        1          3          63  69  97
  27        1          2          76  77
  28        1          3          68  99 114
  29        1          3          35  40  62
  30        1          3          45  59  83
  31        1          3          60  65  70
  32        1          3          44  52 112
  33        1          3          49  68 101
  34        1          2          47  72
  35        1          2          48  75
  36        1          3          45  47  82
  37        1          2          39  74
  38        1          2          48  62
  39        1          2          63 109
  40        1          3          67  77 120
  41        1          1          84
  42        1          3          46  87 102
  43        1          3          76  83  90
  44        1          3          64  81 117
  45        1          3          53  55  79
  46        1          3          55  67 109
  47        1          3          56  61  66
  48        1          3          78  88 103
  49        1          1         107
  50        1          1          80
  51        1          2          52  73
  52        1          2          67 118
  53        1          3          62  87  88
  54        1          3          60  73  76
  55        1          2          56  71
  56        1          3          73  95  96
  57        1          2          85  97
  58        1          2          65 104
  59        1          2          64  92
  60        1          2          78  95
  61        1          3          64  80  92
  62        1          3          68  70  92
  63        1          3          71  84 104
  64        1          3          90  91 121
  65        1          1          86
  66        1          3          78 103 105
  67        1          1         100
  68        1          3          89 102 109
  69        1          3          91  95  96
  70        1          3          80 107 119
  71        1          1          75
  72        1          2          79  84
  73        1          3          77  81 116
  74        1          3          82  86  98
  75        1          1         114
  76        1          3          89  91  98
  77        1          1          93
  78        1          3          83  86 106
  79        1          2          81 106
  80        1          1         108
  81        1          1         100
  82        1          3          88  90 105
  83        1          1          94
  84        1          2          87 116
  85        1          2          89  94
  86        1          3          93  96  99
  87        1          1         108
  88        1          2          93  97
  89        1          1         103
  90        1          1         100
  91        1          2          99 101
  92        1          1         102
  93        1          1          94
  94        1          2         101 112
  95        1          2          98 107
  96        1          1         108
  97        1          1         121
  98        1          1         110
  99        1          1         116
 100        1          1         113
 101        1          1         113
 102        1          2         104 105
 103        1          1         110
 104        1          1         117
 105        1          1         113
 106        1          1         115
 107        1          2         111 114
 108        1          2         110 112
 109        1          1         115
 110        1          1         111
 111        1          1         118
 112        1          1         121
 113        1          1         115
 114        1          1         118
 115        1          1         119
 116        1          1         119
 117        1          1         120
 118        1          1         120
 119        1          1         122
 120        1          1         122
 121        1          1         122
 122        1          0        
************************************************************************
REQUESTS/DURATIONS:
jobnr. mode duration  R 1  R 2  R 3  R 4
------------------------------------------------------------------------
  1      1     0    
  2      1     3       0   8   0
                       0   1   0
                       0   6   0
                       0   5   0
  3      1     1       5
                       3
                       6
                       2
  4      1    10       0   2   2   2   0   2   2   2   2   2
                       0   7   7   7   0   7   7   7   7   7
                       0   5   5   5   0   5   5   5   5   5
                       0   2   2   2   0   2   2   2   2   2
  5      1    10       1   1   1   1   1   0   1   1   1   1
                       6   6   6   6   6   0   6   6   6   6
                       7   7   7   7   7   0   7   7   7   7
                       6   6   6   6   6   0   6   6   6   6
  6      1     4       0   3   3   3
                       0   8   8   8
                       0   9   9   9
                       0   7   7   7
  7      1    10       4   4   4   4   4   4   0   4   4   4
                       1   1   1   1   1   1   0   1   1   1
                       4   4   4   4   4   4   0   4   4   4
                       5   5   5   5   5   5   0   5   5   5
  8      1     2       3   3
                       9   9
                       9   9
                       1   1
  9      1     3       0   4   4
                       0   8   8
                       0   5   5
                       0   7   7
 10      1     1       9
                       1
                       7
                       2
 11      1     1       0
                       0
                       0
                       0
 12      1     3       4   4   4
                       4   4   4
                       1   1   1
                       2   2   2
 13      1     5       0   7   7   7   7
                       0  10  10  10  10
                       0   5   5   5   5
                       0   2   2   2   2
 14      1     1       3
                       8
                       7
                       3
 15      1     1       6
                       4
                       9
                       8
 16      1     8       5   5   5   5   5   0   5   5
                       5   5   5   5   5   0   5   5
                       3   3   3   3   3   0   3   3
                       2   2   2   2   2   0   2   2
 17      1    10       6   6   0   0   6   6   6   6   0   6
                       1   1   0   0   1   1   1   1   0   1
                       9   9   0   0   9   9   9   9   0   9
                       9   9   0   0   9   9   9   9   0   9
 18      1     7       4   0   4   4   4   4   4
                       3   0   3   3   3   3   3
                       7   0   7   7   7   7   7
                       8   0   8   8   8   8   8
 19      1    10       1   1   0   1   0   1   1   1   1   1
                       2   2   0   2   0   2   2   2   2   2
                      10  10   0  10   0  10  10  10  10  10
                       8   8   0   8   0   8   8   8   8   8
 20      1     9       3   3   3   3   3   3   3   3   3
                       9   9   9   9   9   9   9   9   9
                       6   6   6   6   6   6   6   6   6
                       5   5   5   5   5   5   5   5   5
 21      1     8       4   4   4   4   4   4   4   4
                       4   4   4   4   4   4   4   4
                       8   8   8   8   8   8   8   8
                       7   7   7   7   7   7   7   7
 22      1     1       5
                       2
                       9
                       4
 23      1     5       2   0   2   2   2
                       3   0   3   3   3
                       5   0   5   5   5
                       8   0   8   8   8
 24      1    10       5   0   0   5   5   5   5   5   5   0
                      10   0   0  10  10  10  10  10  10   0
                       5   0   0   5   5   5   5   5   5   0
                       2   0   0   2   2   2   2   2   2   0
 25      1     9       4   4   4   0   4   4   4   4   4
                       5   5   5   0   5   5   5   5   5
                       9   9   9   0   9   9   9   9   9
                       8   8   8   0   8   8   8   8   8
 26      1    10       5   5   5   5   5   5   5   0   5   5
                       5   5   5   5   5   5   5   0   5   5
                       2   2   2   2   2   2   2   0   2   2
                       1   1   1   1   1   1   1   0   1   1
 27      1     8       0   6   6   6   0   6   0   6
                       0   5   5   5   0   5   0   5
                       0  10  10  10   0  10   0  10
                       0   2   2   2   0   2   0   2
 28      1     3       0   0   0
                       0   0   0
                       0   0   0
                       0   0   0
 29      1     2       2   2
                       9   9
                       6   6
                      10  10
 30      1    10       0   0   2   2   2   2   0   2   0   0
                       0   0   9   9   9   9   0   9   0   0
                       0   0   4   4   4   4   0   4   0   0
                       0   0   5   5   5   5   0   5   0   0
 31      1     2       3   3
                       3   3
                       3   3
                       6   6
 32      1     8       3   0   3   3   3   3   3   3
                       3   0   3   3   3   3   3   3
                       3   0   3   3   3   3   3   3
                       1   0   1   1   1   1   1   1
 33      1     3       0   0  10
                       0   0  10
                       0   0   3
                       0   0   1
 34      1     1       0
                       0
                       0
                       0
 35      1     2       0   0
                       0   0
                       0   0
                       0   0
 36      1    10       8   8   8   8   8   8   8   8   8   8
                       4   4   4   4   4   4   4   4   4   4
                       6   6   6   6   6   6   6   6   6   6
                       7   7   7   7   7   7   7   7   7   7
 37      1     9       6   6   6   6   0   6   6   6   6
                       5   5   5   5   0   5   5   5   5
                       5   5   5   5   0   5   5   5   5
                       7   7   7   7   0   7   7   7   7
 38      1    10       9   9   9   9   9   0   0   9   9   9
                       2   2   2   2   2   0   0   2   2   2
                       7   7   7   7   7   0   0   7   7   7
                       4   4   4   4   4   0   0   4   4   4
 39      1     3       9   9   9
                       9   9   9
                       2   2   2
                       5   5   5
 40      1     9       0   3   3   0   3   3   3   3   3
                       0  10  10   0  10  10  10  10  10
                       0  10  10   0  10  10  10  10  10
                       0   7   7   0   7   7   7   7   7
 41      1    10       3   3   3   0   0   0   0   3   3   3
                       1   1   1   0   0   0   0   1   1   1
                       9   9   9   0   0   0   0   9   9   9
                       4   4   4   0   0   0   0   4   4   4
 42      1     3       0   0   4
                       0   0   5
                       0   0   8
                       0   0   1
 43      1     3       3   3   3
                       8   8   8
                       1   1   1
                       4   4   4
 44      1     7       5   5   5   5   5   5   5
                       3   3   3   3   3   3   3
                       9   9   9   9   9   9   9
                       7   7   7   7   7   7   7
 45      1     4       9   9   9   9
                       3   3   3   3
                       3   3   3   3
                       3   3   3   3
 46      1     3       7   7   7
                       3   3   3
                       8   8   8
                       9   9   9
 47      1     2       4   4
                       2   2
                       7   7
                      10  10
 48      1     3       2   0   0
                      10   0   0
                      10   0   0
                       2   0   0
 49      1     2       6   6
                       9   9
                       7   7
                       9   9
 50      1     5       6   6   0   6   6
                       7   7   0   7   7
                       7   7   0   7   7
                       5   5   0   5   5
 51      1     1       2
                       6
                       4
                      10
 52      1    10       0   9   0   0   9   9   9   9   9   9
                       0   6   0   0   6   6   6   6   6   6
                       0   6   0   0   6   6   6   6   6   6
                       0   2   0   0   2   2   2   2   2   2
 53      1     6       0   2   2   0   0   2
                       0   8   8   0   0   8
                       0   5   5   0   0   5
                       0   5   5   0   0   5
 54      1    10       0   2   0   2   2   0   2   2   2   2
                       0   2   0   2   2   0   2   2   2   2
                       0   8   0   8   8   0   8   8   8   8
                       0   9   0   9   9   0   9   9   9   9
 55      1     6       0   7   7   7   7   7
                       0   8   8   8   8   8
                       0   4   4   4   4   4
                       0   3   3   3   3   3
 56      1     4       5   5   5   5
                       5   5   5   5
                       7   7   7   7
                       7   7   7   7
 57      1    10       9   9   9   9   9   9   0   9   9   9
                       4   4   4   4   4   4   0   4   4   4
                       8   8   8   8   8   8   0   8   8   8
                       6   6   6   6   6   6   0   6   6   6
 58      1     2       6   6
                       3   3
                      10  10
                       6   6
 59      1     8       0   9   9   9   9   9   9   9
                       0   5   5   5   5   5   5   5
                       0   1   1   1   1   1   1   1
                       0   7   7   7   7   7   7   7
 60      1     4       7   7   0   7
                       9   9   0   9
                      10  10   0  10
                       1   1   0   1
 61      1     6       1   1   1   1   0   1
                       8   8   8   8   0   8
                       7   7   7   7   0   7
                       6   6   6   6   0   6
 62      1     8      10  10  10  10  10  10  10   0
                       2   2   2   2   2   2   2   0
                       5   5   5   5   5   5   5   0
                      10  10  10  10  10  10  10   0
 63      1     3       7   7   7
                       3   3   3
                       8   8   8
                       3   3   3
 64      1    10       9   9   9   9   9   9   0   9   0   9
                       6   6   6   6   6   6   0   6   0   6
                       8   8   8   8   8   8   0   8   0   8
                       7   7   7   7   7   7   0   7   0   7
 65      1     8       1   1   0   1   1   1   1   1
                       5   5   0   5   5   5   5   5
                       9   9   0   9   9   9   9   9
                       9   9   0   9   9   9   9   9
 66      1     4       5   5   5   5
                      10  10  10  10
                       4   4   4   4
                       7   7   7   7
 67      1     9       7   0   0   0   0   7   7   0   7
                       2   0   0   0   0   2   2   0   2
                      10   0   0   0   0  10  10   0  10
                       6   0   0   0   0   6   6   0   6
 68      1     3       9   9   9
                       8   8   8
                       5   5   5
                       7   7   7
 69      1     3       5   5   5
                       6   6   6
                       2   2   2
                       3   3   3
 70      1    10       6   0   6   6   6   0   6   6   0   6
                      10   0  10  10  10   0  10  10   0  10
                       2   0   2   2   2   0   2   2   0   2
                       1   0   1   1   1   0   1   1   0   1
 71      1     9       9   9   9   9   9   9   9   9   9
                       8   8   8   8   8   8   8   8   8
                       1   1   1   1   1   1   1   1   1
                       8   8   8   8   8   8   8   8   8
 72      1     5       5   5   5   0   5
                       7   7   7   0   7
                       8   8   8   0   8
                       3   3   3   0   3
 73      1     3       8   0   0
                       8   0   0
                       5   0   0
                       6   0   0
 74      1     4       4   4   4   4
                       8   8   8   8
                       1   1   1   1
                       2   2   2   2
 75      1     9       9   9   9   9   9   9   9   9   9
                       9   9   9   9   9   9   9   9   9
                       7   7   7   7   7   7   7   7   7
                       3   3   3   3   3   3   3   3   3
 76      1     3       5   5   5
                       6   6   6
                       8   8   8
                       1   1   1
 77      1     1       7
                       8
                       8
                       4
 78      1     2       8   8
                       4   4
                       3   3
                       4   4
 79      1     1       3
                       7
                       9
                       4
 80      1     3       4   0   4
                       4   0   4
                       8   0   8
                       7   0   7
 81      1     5       8   8   8   8   0
                       8   8   8   8   0
                       5   5   5   5   0
                      10  10  10  10   0
 82      1     5       2   2   2   0   0
                       5   5   5   0   0
                       6   6   6   0   0
                       3   3   3   0   0
 83      1     1       1
                       5
                       2
                       8
 84      1     4       2   2   2   2
                       7   7   7   7
                       3   3   3   3
                       3   3   3   3
 85      1     5       1   0   1   1   1
                      10   0  10  10  10
                       1   0   1   1   1
                       5   0   5   5   5
 86      1     7       8   8   0   8   8   8   8
                       2   2   0   2   2   2   2
                       1   1   0   1   1   1   1
                       9   9   0   9   9   9   9
 87      1     4       4   0   4   4
                       8   0   8   8
                       3   0   3   3
                       3   0   3   3
 88      1     8       4   4   4   4   4   4   4   0
                       3   3   3   3   3   3   3   0
                       1   1   1   1   1   1   1   0
                       7   7   7   7   7   7   7   0
 89      1     2       0  10
                       0   7
                       0   4
                       0   9
 90      1     3       6   6   0
                       9   9   0
                       8   8   0
                       1   1   0
 91      1     6       7   7   7   7   0   7
                       1   1   1   1   0   1
                       4   4   4   4   0   4
                       1   1   1   1   0   1
 92      1     9       1   1   1   0   1   0   1   1   1
                       2   2   2   0   2   0   2   2   2
                       3   3   3   0   3   0   3   3   3
                       7   7   7   0   7   0   7   7   7
 93      1    10       1   1   0   1   1   1   0   1   1   1
                       8   8   0   8   8   8   0   8   8   8
                       1   1   0   1   1   1   0   1   1   1
                       9   9   0   9   9   9   0   9   9   9
 94      1     3       4   4   4
                       2   2   2
                       1   1   1
                       8   8   8
 95      1    10       4   4   4   4   4   4   4   4   4   0
                       2   2   2   2   2   2   2   2   2   0
                       5   5   5   5   5   5   5   5   5   0
                      10  10  10  10  10  10  10  10  10   0
 96      1     2       7   7
                       4   4
                       2   2
                       1   1
 97      1     5       2   2   2   2   0
                       8   8   8   8   0
                       8   8   8   8   0
                       9   9   9   9   0
 98      1     4       1   1   0   1
                       7   7   0   7
                       3   3   0   3
                       6   6   0   6
 99      1     5       2   0   2   2   2
                       8   0   8   8   8
                       3   0   3   3   3
                       3   0   3   3   3
100      1     5       5   5   5   5   0
                       9   9   9   9   0
                       9   9   9   9   0
                       3   3   3   3   0
101      1    10       0   5   5   5   0   5   5   5   5   5
                       0   9   9   9   0   9   9   9   9   9
                       0   4   4   4   0   4   4   4   4   4
                       0   6   6   6   0   6   6   6   6   6
102      1     9       3   3   0   3   3   0   3   3   3
                      10  10   0  10  10   0  10  10  10
                       8   8   0   8   8   0   8   8   8
                       2   2   0   2   2   0   2   2   2
103      1     8       1   1   0   1   1   1   1   1
                       4   4   0   4   4   4   4   4
                       7   7   0   7   7   7   7   7
                       2   2   0   2   2   2   2   2
104      1     9       4   4   4   0   4   0   4   4   4
                       5   5   5   0   5   0   5   5   5
                       6   6   6   0   6   0   6   6   6
                       5   5   5   0   5   0   5   5   5
105      1     1       3
                       1
                       6
                       1
106      1    10       8   8   8   8   0   8   8   8   8   8
                       8   8   8   8   0   8   8   8   8   8
                       3   3   3   3   0   3   3   3   3   3
                       4   4   4   4   0   4   4   4   4   4
107      1     2       5   0
                       9   0
                       2   0
                       1   0
108      1     3       1   1   1
                       1   1   1
                       2   2   2
                       6   6   6
109      1    10       3   3   3   3   3   0   3   0   3   3
                       1   1   1   1   1   0   1   0   1   1
                       6   6   6   6   6   0   6   0   6   6
                       7   7   7   7   7   0   7   0   7   7
110      1     9       3   3   3   0   3   0   3   3   0
                       8   8   8   0   8   0   8   8   0
                       5   5   5   0   5   0   5   5   0
                       2   2   2   0   2   0   2   2   0
111      1     5      10  10  10  10  10
                       2   2   2   2   2
                       3   3   3   3   3
                       8   8   8   8   8
112      1     7       4   0   0   4   4   4   4
                       4   0   0   4   4   4   4
                       3   0   0   3   3   3   3
                       9   0   0   9   9   9   9
113      1    10       0   2   0   0   2   2   2   2   0   2
                       0   1   0   0   1   1   1   1   0   1
                       0   5   0   0   5   5   5   5   0   5
                       0   2   0   0   2   2   2   2   0   2
114      1     5      10  10   0  10   0
                       6   6   0   6   0
                       7   7   0   7   0
                       1   1   0   1   0
115      1     7       4   4   4   0   4   4   4
                       8   8   8   0   8   8   8
                       7   7   7   0   7   7   7
                       9   9   9   0   9   9   9
116      1     2      10  10
                       9   9
                       6   6
                      10  10
117      1     3       9   9   0
                       7   7   0
                       9   9   0
                       4   4   0
118      1     1       6
                       3
                       7
                       3
119      1     2       6   6
                       5   5
                       5   5
                       6   6
120      1     4       0   1   0   1
                       0   3   0   3
                       0   6   0   6
                       0   9   0   9
121      1     8       9   9   0   9   9   0   0   9
                       4   4   0   4   4   0   0   4
                       6   6   0   6   6   0   0   6
                       2   2   0   2   2   0   0   2
122      1     0    
************************************************************************
RESOURCEAVAILABILITIES:
  R 1  R 2  R 3  R 4

   0  40  40  40  40   0  40  40  40  40   0  40   0   0  40  40  40  40   0  40  40  40  40  40  40  40  40  40  40  40  40   0  40  40  40  40  40  40   0  40   0  40  40  40  40  40   0   0  40  40   0  40  40  40  40  40  40  40  40   0  40  40   0  40  40  40  40  40  40  40  40  40  40  40  40  40  40  40  40   0   0  40   0   0  40  40  40   0  40  40  40  40  40  40   0  40  40  40   0  40  40  40  40   0  40  40  40  40   0   0  40  40   0  40  40  40  40   0  40  40  40  40  40  40  40  40  40   0   0  40   0  40  40  40  40  40   0   0  40   0   0  40  40   0  40  40  40  40   0  40  40  40  40  40   0   0  40   0  40  40  40  40  40  40  40  40   0   0  40  40  40   0  40   0  40   0  40  40   0  40  40  40  40  40  40  40  40  40  40  40  40   0   0  40  40   0   0  40  40  40  40   0  40  40  40  40   0  40  40  40  40  40   0  40  40  40  40  40  40  40  40  40  40  40  40  40   0  40  40  40  40   0  40   0  40  40  40  40  40   0  40   0  40  40   0  40  40  40  40   0  40  40  40  40  40  40  40  40  40  40   0  40  40  40  40  40  40  40  40  40   0   0  40   0  40  40  40   0  40  40  40  40  40  40  40  40  40  40  40  40   0  40  40  40   0  40  40  40  40  40  40  40  40  40  40  40  40  40  40  40  40   0  40  40  40  40  40   0  40  40  40  40  40  40  40  40   0  40  40  40  40   0  40  40  40  40   0   0  40  40  40  40  40  40  40   0  40  40   0   0   0  40  40  40  40   0  40  40  40  40  40   0  40  40  40   0  40  40   0  40  40  40   0  40  40  40   0  40  40  40  40  40  40   0   0  40  40  40   0  40  40   0  40  40  40  40  40  40  40  40  40   0  40  40  40   0  40  40  40  40  40   0  40  40  40  40  40  40  40  40  40   0  40  40  40  40   0  40   0  40   0   0   0  40  40   0  40  40  40  40  40  40  40   0  40  40   0  40  40  40  40  40   0  40   0  40   0   0   0   0  40  40  40  40  40  40  40   0  40  40  40  40   0  40  40   0  40  40  40  40  40  40  40  40  40  40  40  40  40  40  40  40  40  40  40  40  40  40  40  40  40  40  40  40  40   0  40  40   0  40   0  40  40  40  40  40  40   0  40   0  40  40   0   0  40  40  40  40  40  40  40  40  40  40  40  40  40  40  40  40   0  40   0   0  40  40  40   0  40  40  40  40  40  40  40  40  40  40  40   0  40  40  40  40   0  40  40   0  40  40  40  40  40  40   0  40  40  40  40  40  40  40  40  40  40  40   0  40  40  40  40   0  40  40   0  40  40  40   0  40  40  40  40   0  40  40   0  40  40  40  40  40  40  40  40  40  40  40  40  40   0   0   0  40  40  40   0  40   0  40  40  40  40   0  40  40  40  40  40   0  40  40  40  40  40   0   0  40  40  40  40  40   0  40   0   0  40

   0  50  50  50  50   0  50  50  50  50   0  50   0   0  50  50  50  50   0  50  50  50  50  50  50  50  50  50  50  50  50   0  50  50  50  50  50  50   0  50   0  50  50  50  50  50   0   0  50  50   0  50  50  50  50  50  50  50  50   0  50  50   0  50  50  50  50  50  50  50  50  50  50  50  50  50  50  50  50   0   0  50   0   0  50  50  50   0  50  50  50  50  50  50   0  50  50  50   0  50  50  50  50   0  50  50  50  50   0   0  50  50   0  50  50  50  50   0  50  50  50  50  50  50  50  50  50   0   0  50   0  50  50  50  50  50   0   0  50   0   0  50  50   0  50  50  50  50   0  50  50  50  50  50   0   0  50   0  50  50  50  50  50  50  50  50   0   0  50  50  50   0  50   0  50   0  50  50   0  50  50  50  50  50  50  50  50  50  50  50  50   0   0  50  50   0   0  50  50  50  50   0  50  50  50  50   0  50  50  50  50  50   0  50  50  50  50  50  50  50  50  50  50  50  50  50   0  50  50  50  50   0  50   0  50  50  50  50  50   0  50   0  50  50   0  50  50  50  50   0  50  50  50  50  50  50  50  50  50  50   0  50  50  50  50  50  50  50  50  50   0   0  50   0  50  50  50   0  50  50  50  50  50  50  50  50  50  50  50  50   0  50  50  50   0  50  50  50  50  50  50  50  50  50  50  50  50  50  50  50  50   0  50  50  50  50  50   0  50  50  50  50  50  50  50  50   0  50  50  50  50   0  50  50  50  50   0   0  50  50  50  50  50  50  50   0  50  50   0   0   0  50  50  50  50   0  50  50  50  50  50   0  50  50  50   0  50  50   0  50  50  50   0  50  50  50   0  50  50  50  50  50  50   0   0  50  50  50   0  50  50   0  50  50  50  50  50  50  50  50  50   0  50  50  50   0  50  50  50  50  50   0  50  50  50  50  50  50  50  50  50   0  50  50  50  50   0  50   0  50   0   0   0  50  50   0  50  50  50  50  50  50  50   0  50  50   0  50  50  50  50  50   0  50   0  50   0   0   0   0  50  50  50  50  50  50  50   0  50  50  50  50   0  50  50   0  50  50  50  50  50  50  50  50  50  50  50  50  50  50  50  50  50  50  50  50  50  50  50  50  50  50  50  50  50   0  50  50   0  50   0  50  50  50  50  50  50   0  50   0  50  50   0   0  50  50  50  50  50  50  50  50  50  50  50  50  50  50  50  50   0  50   0   0  50  50  50   0  50  50  50  50  50  50  50  50  50  50  50   0  50  50  50  50   0  50  50   0  50  50  50  50  50  50   0  50  50  50  50  50  50  50  50  50  50  50   0  50  50  50  50   0  50  50   0  50  50  50   0  50  50  50  50   0  50  50   0  50  50  50  50  50  50  50  50  50  50  50  50  50   0   0   0  50  50  50   0  50   0  50  50  50  50   0  50  50  50  50  50   0  50  50  50  50  50   0   0  50  50  50  50  50   0  50   0   0  50

   0  55  55  55  55   0  55  55  55  55   0  55   0   0  55  55  55  55   0  55  55  55  55  55  55  55  55  55  55  55  55   0  55  55  55  55  55  55   0  55   0  55  55  55  55  55   0   0  55  55   0  55  55  55  55  55  55  55  55   0  55  55   0  55  55  55  55  55  55  55  55  55  55  55  55  55  55  55  55   0   0  55   0   0  55  55  55   0  55  55  55  55  55  55   0  55  55  55   0  55  55  55  55   0  55  55  55  55   0   0  55  55   0  55  55  55  55   0  55  55  55  55  55  55  55  55  55   0   0  55   0  55  55  55  55  55   0   0  55   0   0  55  55   0  55  55  55  55   0  55  55  55  55  55   0   0  55   0  55  55  55  55  55  55  55  55   0   0  55  55  55   0  55   0  55   0  55  55   0  55  55  55  55  55  55  55  55  55  55  55  55   0   0  55  55   0   0  55  55  55  55   0  55  55  55  55   0  55  55  55  55  55   0  55  55  55  55  55  55  55  55  55  55  55  55  55   0  55  55  55  55   0  55   0  55  55  55  55  55   0  55   0  55  55   0  55  55  55  55   0  55  55  55  55  55  55  55  55  55  55   0  55  55  55  55  55  55  55  55  55   0   0  55   0  55  55  55   0  55  55  55  55  55  55  55  55  55  55  55  55   0  55  55  55   0  55  55  55  55  55  55  55  55  55  55  55  55  55  55  55  55   0  55  55  55  55  55   0  55  55  55  55  55  55  55  55   0  55  55  55  55   0  55  55  55  55   0   0  55  55  55  55  55  55  55   0  55  55   0   0   0  55  55  55  55   0  55  55  55  55  55   0  55  55  55   0  55  55   0  55  55  55   0  55  55  55   0  55  55  55  55  55  55   0   0  55  55  55   0  55  55   0  55  55  55  55  55  55  55  55  55   0  55  55  55   0  55  55  55  55  55   0  55  55  55  55  55  55  55  55  55   0  55  55  55  55   0  55   0  55   0   0   0  55  55   0  55  55  55  55  55  55  55   0  55  55   0  55  55  55  55  55   0  55   0  55   0   0   0   0  55  55  55  55  55  55  55   0  55  55  55  55   0  55  55   0  55  55  55  55  55  55  55  55  55  55  55  55  55  55  55  55  55  55  55  55  55  55  55  55  55  55  55  55  55   0  55  55   0  55   0  55  55  55  55  55  55   0  55   0  55  55   0   0  55  55  55  55  55  55  55  55  55  55  55  55  55  55  55  55   0  55   0   0  55  55  55   0  55  55  55  55  55  55  55  55  55  55  55   0  55  55  55  55   0  55  55   0  55  55  55  55  55  55   0  55  55  55  55  55  55  55  55  55  55  55   0  55  55  55  55   0  55  55   0  55  55  55   0  55  55  55  55   0  55  55   0  55  55  55  55  55  55  55  55  55  55  55  55  55   0   0   0  55  55  55   0  55   0  55  55  55  55   0  55  55  55  55  55   0  55  55  55  55  55   0   0  55  55  55  55  55   0  55   0   0  55

   0  46  46  46  46   0  46  46  46  46   0  46   0   0  46  46  46  46   0  46  46  46  46  46  46  46  46  46  46  46  46   0  46  46  46  46  46  46   0  46   0  46  46  46  46  46   0   0  46  46   0  46  46  46  46  46  46  46  46   0  46  46   0  46  46  46  46  46  46  46  46  46  46  46  46  46  46  46  46   0   0  46   0   0  46  46  46   0  46  46  46  46  46  46   0  46  46  46   0  46  46  46  46   0  46  46  46  46   0   0  46  46   0  46  46  46  46   0  46  46  46  46  46  46  46  46  46   0   0  46   0  46  46  46  46  46   0   0  46   0   0  46  46   0  46  46  46  46   0  46  46  46  46  46   0   0  46   0  46  46  46  46  46  46  46  46   0   0  46  46  46   0  46   0  46   0  46  46   0  46  46  46  46  46  46  46  46  46  46  46  46   0   0  46  46   0   0  46  46  46  46   0  46  46  46  46   0  46  46  46  46  46   0  46  46  46  46  46  46  46  46  46  46  46  46  46   0  46  46  46  46   0  46   0  46  46  46  46  46   0  46   0  46  46   0  46  46  46  46   0  46  46  46  46  46  46  46  46  46  46   0  46  46  46  46  46  46  46  46  46   0   0  46   0  46  46  46   0  46  46  46  46  46  46  46  46  46  46  46  46   0  46  46  46   0  46  46  46  46  46  46  46  46  46  46  46  46  46  46  46  46   0  46  46  46  46  46   0  46  46  46  46  46  46  46  46   0  46  46  46  46   0  46  46  46  46   0   0  46  46  46  46  46  46  46   0  46  46   0   0   0  46  46  46  46   0  46  46  46  46  46   0  46  46  46   0  46  46   0  46  46  46   0  46  46  46   0  46  46  46  46  46  46   0   0  46  46  46   0  46  46   0  46  46  46  46  46  46  46  46  46   0  46  46  46   0  46  46  46  46  46   0  46  46  46  46  46  46  46  46  46   0  46  46  46  46   0  46   0  46   0   0   0  46  46   0  46  46  46  46  46  46  46   0  46  46   0  46  46  46  46  46   0  46   0  46   0   0   0   0  46  46  46  46  46  46  46   0  46  46  46  46   0  46  46   0  46  46  46  46  46  46  46  46  46  46  46  46  46  46  46  46  46  46  46  46  46  46  46  46  46  46  46  46  46   0  46  46   0  46   0  46  46  46  46  46  46   0  46   0  46  46   0   0  46  46  46  46  46  46  46  46  46  46  46  46  46  46  46  46   0  46   0   0  46  46  46   0  46  46  46  46  46  46  46  46  46  46  46   0  46  46  46  46   0  46  46   0  46  46  46  46  46  46   0  46  46  46  46  46  46  46  46  46  46  46   0  46  46  46  46   0  46  46   0  46  46  46   0  46  46  46  46   0  46  46   0  46  46  46  46  46  46  46  46  46  46  46  46  46   0   0   0  46  46  46   0  46   0  46  46  46  46   0  46  46  46  46  46   0  46  46  46  46  46   0   0  46  46  46  46  46   0  46   0   0  46

************************************************************************
